NAME : XML100_2264_20
DIMENSION : 101
NB_CLUSTERS : 22
CLUSTERING_ALG : DBSCAN
CLUSTERING_PARAMS : eps(17), minSamples(3)
CLUSTERS
1 0
2 2 36 37
3 5 12 18 23 27 30 35 58 69 91
4 8 48 87
5 3 14 28 82 98
6 16 29 38 42 56 62 66 67 76 77 78 80 84 86 90
7 4 10 25 41 53 55 70
8 13 32 33 34 45 85 96
9 47 50 51 52 68 81 100
10 1 6 19 31 46 59 83 89
11 11 24 75 92 99
12 21 93
13 22 39 72
14 7 74
15 26 40 49
16 17 63 79 94
17 9 57 95
18 43 73
19 44 65 97
20 54 61 64
21 60 88
22 15 20 71
EOF